instances/shortest_path/discrete/shortest_path_3_16.lp
\ Model nohadani_3_16
\ LP format - for model browsing. Use MPS format to capture full model detail.
\ Signature: 0xf9a0f44b955a6a9b
Minimize
  35.17101079013795 y[0,1] + 29.20616373302047 y[0,2]
   + 35.17101079013795 y[1,0] + 21.2602916254693 y[1,2]
   + 29.20616373302047 y[2,0] + 21.2602916254693 y[2,1] + x[0,1] + x[0,2]
   + x[1,0] + x[1,2] + x[2,0] + x[2,1] + 3.517101079013795 r[0,1]
   + 2.920616373302047 r[0,2] + 3.517101079013795 r[1,0]
   + 2.12602916254693 r[1,2] + 2.920616373302047 r[2,0]
   + 2.12602916254693 r[2,1]
Subject To
 flow_cons_inner_nodes[2]: y[0,2] + y[1,2] - y[2,0] - y[2,1] = 0
 flow_cons_source: y[0,1] + y[0,2] - y[1,0] - y[2,0] = 1
 flow_cons_target: y[0,1] - y[1,0] - y[1,2] + y[2,1] = 1
 primal_lower: 10.41111065197306 x[0,1] + 4.869058425732285 x[0,2]
   + 11.76503390717073 x[1,0] + 3.393458669898122 x[1,2]
   + 12.71365867988995 x[2,0] + 12.796818558145 x[2,1] + 46 u[0,1]
   + 46 u[0,2] + 60 u[1,0] + 57 u[1,2] + 82 u[2,0] + 100 u[2,1] <= 100
 mccormick1[0,1]: - u[0,1] + r[0,1] <= 0
 mccormick1[0,2]: - u[0,2] + r[0,2] <= 0
 mccormick1[1,0]: - u[1,0] + r[1,0] <= 0
 mccormick1[1,2]: - u[1,2] + r[1,2] <= 0
 mccormick1[2,0]: - u[2,0] + r[2,0] <= 0
 mccormick1[2,1]: - u[2,1] + r[2,1] <= 0
 mccormick2[0,1]: - y[0,1] + r[0,1] <= 0
 mccormick2[0,2]: - y[0,2] + r[0,2] <= 0
 mccormick2[1,0]: - y[1,0] + r[1,0] <= 0
 mccormick2[1,2]: - y[1,2] + r[1,2] <= 0
 mccormick2[2,0]: - y[2,0] + r[2,0] <= 0
 mccormick2[2,1]: - y[2,1] + r[2,1] <= 0
 mccormick3[0,1]: - y[0,1] - u[0,1] + r[0,1] >= -1
 mccormick3[0,2]: - y[0,2] - u[0,2] + r[0,2] >= -1
 mccormick3[1,0]: - y[1,0] - u[1,0] + r[1,0] >= -1
 mccormick3[1,2]: - y[1,2] - u[1,2] + r[1,2] >= -1
 mccormick3[2,0]: - y[2,0] - u[2,0] + r[2,0] >= -1
 mccormick3[2,1]: - y[2,1] - u[2,1] + r[2,1] >= -1
Bounds
Binaries
 y[0,1] y[0,2] y[1,0] y[1,2] y[2,0] y[2,1] x[0,1] x[0,2] x[1,0] x[1,2]
 x[2,0] x[2,1] u[0,1] u[0,2] u[1,0] u[1,2] u[2,0] u[2,1] r[0,1] r[0,2]
 r[1,0] r[1,2] r[2,0] r[2,1]
End
