instances/shortest_path/discrete/shortest_path_3_16.kp
93718
100

[10.41111065197306 4.869058425732285 11.765033907170727 3.3934586698981217 12.713658679889953 12.796818558144997]

[46 46 60 57 82 100]
